\ LP format - for model browsing. Use MPS format to capture full model detail.
Minimize
  C0 + 0 C1 + 0.9656854249492381 C3 + 0 C4 + 0 C5 + 0.5 C6
   + 1.248528137423857 C7 + 1.310660171779821 C8 + 0.6 C9 + 0.6 C10
   + 1.138071187457698 C11 + 0 C12 + C13 + 0.9242640687119286 C14
   + 1.414213562373095 C15
Subject To
 R0: C0 + 0.1 C2 + 0.82 C3 - 0.45 C6 - 0.36 C9 - 0.36 C10 - 0.18 C14
   = 0.25
 R1: - 0.9 C0 - 0.09 C3 + 0.55 C6 + 0.64 C7 - 0.225 C8 - 0.54 C9 - 0.9 C13
   - 0.18 C14 = 0.25
 R2: - 0.27 C3 + C8 + C9 + 0.46 C10 + 0.4 C11 - 0.27 C14 = 0.25
 R3: - 0.36 C3 - 0.54 C7 - 0.675 C8 - 0.3 C11 + C13 + 0.73 C14 + 0.1 C15
   = 0.25
Bounds
End
